param set_len = 28;
param target := 192223;
set values := 17640, 17228, 1620, 19613, 9130, 11662, 13957, 13364, 8467, 7881, 22711, 25841, 816, 13538, 28219, 13819, 15201, 15151, 6153, 5592, 26562, 26578, 21966, 30882, 26058, 20517, 9894, 4363, ;
